NAME : senseval3_subTrees7.gtsp.pid6704.gtsp.59056012.tour
COMMENT : Length = 59056012
COMMENT : Found by LKH [Keld Helsgaun] Tue Mar 13 18:24:32 2018
TYPE : TOUR
DIMENSION : 94
TOUR_SECTION
1
51
52
53
54
55
56
47
48
49
50
82
83
84
85
78
79
80
81
88
89
90
91
92
93
94
86
87
37
38
39
40
41
42
43
44
45
46
30
31
32
33
34
35
36
59
57
58
60
61
62
63
64
65
66
67
68
69
70
71
72
25
26
27
28
29
15
16
17
18
19
20
21
22
23
24
9
10
11
12
13
14
2
3
4
5
6
7
8
77
73
74
75
76
-1
EOF
